Data path: /scratch/opt/lxu/CFLG/benchmarks/random_B
Instance: r_30_0.2_75.txt
Result path: /scratch/opt/lxu/CFLG/results/random_B
Solver: Gurobi
Time limit: 7200
Formulation: LEFPA
Cover: Large
julia --project=. src/main.jl /scratch/opt/lxu/CFLG/benchmarks/random_B r_30_0.2_75.txt /scratch/opt/lxu/CFLG/results/random_B Gurobi 7200 LEFPA Large
The latest version of Julia in the `release` channel is 1.11.6+0.x64.linux.gnu. You currently have `1.11.4+0.x64.linux.gnu` installed. Run:

  juliaup update

in your terminal shell to install Julia 1.11.6+0.x64.linux.gnu and update the `release` channel to that version.
/scratch/opt/lxu/CFLG/benchmarks/random_B Gurobi 7200.0 /scratch/opt/lxu/CFLG/results/random_B r_30_0.2_75.txt LEFPA Large
/scratch/opt/lxu/CFLG/benchmarks/random_B/r_30_0.2_75.txt

 read graph
data loaded

problem_graph/original graph: node: 30/30 edge: 75/75 dlt: 1.338331712771451 break_avg_len: 0.6691658563857255 break_max_len: 0.9947526277799718Vbar/V, Ebar/E(30, 30, 75, 75)
Set parameter TokenServer to value "solice01.zib.de"
Set parameter Threads to value 1
Set parameter OutputFlag to value 1
Gurobi Optimizer version 12.0.1 build v12.0.1rc0 (linux64 - "Debian GNU/Linux 12 (bookworm)")

CPU model: Intel(R) Xeon(R) Gold 5122 CPU @ 3.60GHz, instruction set [SSE2|AVX|AVX2|AVX512]
Thread count: 8 physical cores, 16 logical processors, using up to 1 threads

Non-default parameters:
Threads  1

Optimize a model with 105 rows, 225 columns and 375 nonzeros
Model fingerprint: 0x3c30869e
Coefficient statistics:
  Matrix range     [1e+00, 1e+00]
  Objective range  [1e+00, 1e+00]
  Bounds range     [1e+00, 1e+00]
  RHS range        [1e+00, 1e+00]
Presolve time: 0.01s
Presolved: 105 rows, 225 columns, 375 nonzeros

Iteration    Objective       Primal Inf.    Dual Inf.      Time
       0    7.5000000e+01   8.200000e+01   0.000000e+00      0s
      61    3.0000000e+01   0.000000e+00   0.000000e+00      0s

Solved in 61 iterations and 0.02 seconds (0.00 work units)
Optimal objective  3.000000000e+01

User-callback calls 105, time in user-callback 0.01 sec
elapsed CPU time: 1.28867 seconds
Set parameter TokenServer to value "solice01.zib.de"
Set parameter Threads to value 1
Set parameter OutputFlag to value 1
Set parameter MIPGap to value 0.0001
Set parameter TimeLimit to value 7198.71133

 more cuts: false 1.338331712771451 false
is_attach:trueformulation:LEFPA0 75 30

 model loaded

Gurobi Optimizer version 12.0.1 build v12.0.1rc0 (linux64 - "Debian GNU/Linux 12 (bookworm)")

CPU model: Intel(R) Xeon(R) Gold 5122 CPU @ 3.60GHz, instruction set [SSE2|AVX|AVX2|AVX512]
Thread count: 8 physical cores, 16 logical processors, using up to 1 threads

Non-default parameters:
TimeLimit  7198.71133
Threads  1

Optimize a model with 5524 rows, 2705 columns and 16197 nonzeros
Model fingerprint: 0xf6fd32d7
Variable types: 180 continuous, 2525 integer (2525 binary)
Coefficient statistics:
  Matrix range     [1e-06, 2e+00]
  Objective range  [1e+00, 1e+00]
  Bounds range     [3e-01, 1e+00]
  RHS range        [3e-01, 8e+00]
Found heuristic solution: objective 25.0000000
Presolve removed 920 rows and 110 columns
Presolve time: 0.06s
Presolved: 4604 rows, 2595 columns, 15040 nonzeros
Variable types: 105 continuous, 2490 integer (2490 binary)

Root relaxation: objective 1.407407e+00, 2149 iterations, 0.06 seconds (0.11 work units)

    Nodes    |    Current Node    |     Objective Bounds      |     Work
 Expl Unexpl |  Obj  Depth IntInf | Incumbent    BestBd   Gap | It/Node Time

     0     0    1.40741    0  278   25.00000    1.40741  94.4%     -    0s
H    0     0                      14.0000000    1.40741  89.9%     -    0s
H    0     0                       5.0000000    1.40741  71.9%     -    0s
     0     0    1.41243    0  414    5.00000    1.41243  71.8%     -    0s
     0     0    1.66667    0  270    5.00000    1.66667  66.7%     -    0s
     0     0    1.75457    0  242    5.00000    1.75457  64.9%     -    0s
     0     0    1.77395    0  291    5.00000    1.77395  64.5%     -    0s
     0     0    1.80226    0  405    5.00000    1.80226  64.0%     -    1s
     0     0    1.80428    0  408    5.00000    1.80428  63.9%     -    1s
     0     0    1.81547    0  358    5.00000    1.81547  63.7%     -    1s
     0     0    1.81558    0  380    5.00000    1.81558  63.7%     -    1s
     0     0    1.85926    0  340    5.00000    1.85926  62.8%     -    1s
     0     0    1.86081    0  385    5.00000    1.86081  62.8%     -    1s
     0     0    1.86116    0  356    5.00000    1.86116  62.8%     -    1s
     0     0    1.86118    0  376    5.00000    1.86118  62.8%     -    1s
     0     0    1.87721    0  331    5.00000    1.87721  62.5%     -    1s
     0     0    1.88175    0  325    5.00000    1.88175  62.4%     -    1s
     0     0    1.88175    0  325    5.00000    1.88175  62.4%     -    1s
     0     0    1.88470    0  414    5.00000    1.88470  62.3%     -    1s
     0     0    1.88526    0  374    5.00000    1.88526  62.3%     -    1s
     0     0    1.88543    0  456    5.00000    1.88543  62.3%     -    1s
     0     0    1.88543    0  457    5.00000    1.88543  62.3%     -    1s
     0     0    1.88567    0  381    5.00000    1.88567  62.3%     -    1s
H    0     0                       4.0000000    1.88604  52.8%     -    2s
     0     0    1.88604    0  381    4.00000    1.88604  52.8%     -    2s
     0     0    1.88830    0  425    4.00000    1.88830  52.8%     -    2s
     0     0    1.88836    0  426    4.00000    1.88836  52.8%     -    2s
     0     0    1.88840    0  483    4.00000    1.88840  52.8%     -    2s
     0     0    1.88936    0  483    4.00000    1.88936  52.8%     -    2s
     0     0    1.88961    0  416    4.00000    1.88961  52.8%     -    2s
     0     0    1.89019    0  364    4.00000    1.89019  52.7%     -    2s
     0     2    1.89034    0  364    4.00000    1.89034  52.7%     -    3s
   261   185    3.00000   16   89    4.00000    1.95000  51.2%   141    5s
   760   408    2.32186   18  364    4.00000    2.16667  45.8%   144   10s
   772   416    2.50000   41  452    4.00000    2.16667  45.8%   142   15s
   783   423    2.50000   40  498    4.00000    2.16667  45.8%   140   20s
   835   443    3.00000   36  120    4.00000    2.36207  40.9%   208   25s
   966   414    3.00000   32   70    4.00000    2.42246  39.4%   225   30s
  1085   399     cutoff   21         4.00000    2.54348  36.4%   234   35s
  1238   366    3.00000   29  183    4.00000    2.64486  33.9%   233   40s
  1401   347    3.00000   38  109    4.00000    2.67273  33.2%   236   46s
  1550   282     cutoff   21         4.00000    2.77731  30.6%   233   50s
  1735   173    3.00000   31  111    4.00000    3.00000  25.0%   233   55s
  1908    88    3.00000   29  148    4.00000    3.00000  25.0%   236   60s

Cutting planes:
  Cover: 18
  Implied bound: 14
  Clique: 6
  MIR: 15
  StrongCG: 3
  Flow cover: 14
  GUB cover: 31
  Zero half: 11
  RLT: 9
  Relax-and-lift: 2

Explored 1984 nodes (489230 simplex iterations) in 62.12 seconds (78.72 work units)
Thread count was 1 (of 16 available processors)

Solution count 5: 4 5 14 ... 25

Optimal solution found (tolerance 1.00e-04)
Best objective 4.000000000000e+00, best bound 4.000000000000e+00, gap 0.0000%

User-callback calls 17759, time in user-callback 0.02 sec

 sepatime0 0 0
4.0
Stat(MathOptInterface.OPTIMAL, 4.0, 4.0, 0.0, 0.0, 1.28867, 62.12110710144043, 1984, Main.CFLG.LEFPA, "", #undef)
